25 40
1 2 2
1 6 4
2 3 1
2 7 3
3 4 2
3 8 2
4 5 1
4 9 1
5 10 2
6 7 2
6 11 1
7 8 4
7 12 1
8 9 4
8 13 3
9 10 1
9 14 5
10 15 2
11 12 2
11 16 4
12 13 5
12 17 1
13 14 5
13 18 2
14 15 3
14 19 2
15 20 5
16 17 2
16 21 2
17 18 2
17 22 4
18 19 2
18 23 5
19 20 5
19 24 3
20 25 1
21 22 3
22 23 4
23 24 5
24 25 1
